# Objective value = 2.9195692487368012e+02
x[0] 0
x[1] 1
x[2] 1
x[3] 0
x[4] 0
x[5] 0
x[6] 0
x[7] 1
x[8] 0
x[9] 1
x[10] 0
x[11] 0
x[12] 1
x[13] 1
x[14] 1
x[15] 0
x[16] 1
x[17] 1
x[18] 1
x[19] 0
x[20] 1
x[21] 1
x[22] 0
x[23] 1
x[24] 1
x[25] 1
x[26] 0
x[27] 1
x[28] 0
x[29] 0
x[30] 1
x[31] 0
x[32] 1
x[33] 1
x[34] 0
x[35] 0
x[36] 1
x[37] 0
x[38] 1
x[39] 0
x[40] 0
x[41] 0
x[42] 1
x[43] 1
x[44] 0
x[45] 0
x[46] 1
x[47] 1
x[48] 1
x[49] 0
x[50] 1
x[51] 1
x[52] 1
x[53] 1
x[54] 1
x[55] 0
x[56] 0
x[57] 1
x[58] 0
x[59] 0
x[60] 0
x[61] 1
x[62] 1
x[63] 0
x[64] 1
x[65] 0
x[66] 1
x[67] 1
x[68] 1
x[69] 0
x[70] 0
x[71] 1
x[72] 1
x[73] 0
x[74] 1
x[75] 1
x[76] 0
x[77] 0
x[78] 1
x[79] 0
x[80] 0
x[81] 0
x[82] 0
x[83] 1
x[84] 0
x[85] 0
x[86] 0
x[87] 0
x[88] 1
x[89] 0
x[90] 0
x[91] 1
x[92] 1
x[93] 0
x[94] 1
x[95] 1
x[96] 1
x[97] 0
x[98] 0
x[99] 0
x[100] 1
x[101] 0
x[102] 0
x[103] 1
x[104] 0
x[105] 1
x[106] 0
x[107] 0
x[108] 1
x[109] 1
x[110] 1
x[111] 0
x[112] 1
x[113] 0
x[114] 1
x[115] 0
x[116] 1
x[117] 0
x[118] 0
x[119] 0
x[120] 0
x[121] 1
x[122] 1
x[123] 0
x[124] 0
x[125] 0
x[126] 0
x[127] 0
x[128] 0
x[129] 0
x[130] 1
x[131] 0
x[132] 0
x[133] 0
x[134] 0
x[135] 1
x[136] 1
x[137] 1
x[138] 0
x[139] 1
x[140] 1
x[141] 0
x[142] 1
x[143] 1
x[144] 1
x[145] 0
x[146] 1
x[147] 0
x[148] 0
x[149] 0
x[150] 1
x[151] 1
x[152] 0
x[153] 0
x[154] 1
x[155] 0
x[156] 0
x[157] 1
x[158] 0
x[159] 1
x[160] 1
x[161] 0
x[162] 0
x[163] 1
x[164] 0
x[165] 1
x[166] 0
x[167] 0
x[168] 0
x[169] 0
x[170] 1
x[171] 1
x[172] 0
x[173] 0
x[174] 1
x[175] 0
x[176] 1
x[177] 1
x[178] 1
x[179] 1
x[180] 0
x[181] 0
x[182] 0
x[183] 1
x[184] 1
x[185] 1
x[186] 0
x[187] 0
x[188] 0
x[189] 0
x[190] 0
x[191] 0
x[192] 0
x[193] 1
x[194] 1
x[195] 1
x[196] 0
x[197] 1
x[198] 0
x[199] 1
x[200] 1
x[201] 1
x[202] 0
x[203] 0
x[204] 0
x[205] 1
x[206] 0
x[207] 0
x[208] 1
x[209] 0
x[210] 1
x[211] 1
x[212] 1
x[213] 0
x[214] 0
x[215] 0
x[216] 0
x[217] 0
x[218] 0
x[219] 0
x[220] 0
x[221] 0
x[222] 0
x[223] 1
x[224] 1
x[225] 0
x[226] 1
x[227] 0
x[228] 0
x[229] 0
x[230] 0
x[231] 0
x[232] 0
x[233] 1
x[234] 0
x[235] 1
x[236] 0
x[237] 1
x[238] 0
x[239] 1
x[240] 0
x[241] 1
x[242] 0
x[243] 0
x[244] 0
x[245] 1
x[246] 0
x[247] 0
x[248] 1
x[249] 0
x[250] 1
x[251] 1
x[252] 1
x[253] 1
x[254] 1
x[255] 0
x[256] 0
x[257] 0
x[258] 1
x[259] 1
x[260] 1
x[261] 0
x[262] 0
x[263] 1
x[264] 0
x[265] 1
x[266] 1
x[267] 1
x[268] 1
x[269] 1
x[270] 0
x[271] 0
x[272] 0
x[273] 1
x[274] 0
x[275] 0
x[276] 1
x[277] 0
x[278] 0
x[279] 1
x[280] 0
x[281] 1
x[282] 1
x[283] 0
x[284] 1
x[285] 0
x[286] 1
x[287] 0
x[288] 0
x[289] 1
x[290] 1
x[291] 0
x[292] 1
x[293] 1
x[294] 0
x[295] 0
x[296] 1
x[297] 0
x[298] 0
x[299] 1
x[300] 1
x[301] 0
x[302] 0
x[303] 0
x[304] 0
x[305] 1
x[306] 1
x[307] 1
x[308] 1
x[309] 0
x[310] 1
x[311] 0
x[312] 1
x[313] 0
x[314] 1
x[315] 0
x[316] 0
x[317] 0
x[318] 1
x[319] 0
x[320] 0
x[321] 0
x[322] 0
x[323] 1
x[324] 1
x[325] 0
x[326] 1
x[327] 1
x[328] 1
x[329] 0
x[330] 0
x[331] 0
x[332] 1
x[333] 1
x[334] 1
x[335] 0
x[336] 1
x[337] 0
x[338] 1
x[339] 0
x[340] 1
x[341] 0
x[342] 0
x[343] 0
x[344] 0
x[345] 1
x[346] 0
x[347] 0
x[348] 0
x[349] 0
x[350] 0
x[351] 0
x[352] 1
x[353] 0
x[354] 0
x[355] 1
x[356] 1
x[357] 1
x[358] 1
x[359] 1
x[360] 1
x[361] 0
x[362] 1
x[363] 1
x[364] 0
x[365] 1
x[366] 1
x[367] 0
x[368] 0
x[369] 0
x[370] 1
x[371] 0
x[372] 0
x[373] 0
x[374] 0
x[375] 0
x[376] 0
x[377] 1
x[378] 0
x[379] 0
x[380] 1
x[381] 0
x[382] 0
x[383] 1
x[384] 0
x[385] 1
x[386] 0
x[387] 1
x[388] 1
x[389] 0
x[390] 0
x[391] 1
x[392] 0
x[393] 1
x[394] 1
x[395] 0
x[396] 1
x[397] 0
x[398] 0
x[399] 0
x[400] 0
x[401] 0
x[402] 1
x[403] 1
x[404] 1
x[405] 0
x[406] 1
x[407] 1
x[408] 1
x[409] 0
x[410] 0
x[411] 0
x[412] 1
x[413] 0
x[414] 1
x[415] 0
x[416] 1
x[417] 0
x[418] 0
x[419] 0
x[420] 1
x[421] 1
x[422] 1
x[423] 0
x[424] 0
x[425] 0
x[426] 1
x[427] 0
x[428] 1
x[429] 0
x[430] 1
x[431] 1
x[432] 1
x[433] 1
x[434] 0
x[435] 1
x[436] 0
x[437] 0
x[438] 0
x[439] 0
x[440] 0
x[441] 0
x[442] 1
x[443] 1
x[444] 0
x[445] 0
x[446] 1
x[447] 0
x[448] 1
x[449] 1
x[450] 0
x[451] 1
x[452] 0
x[453] 0
x[454] 0
x[455] 1
x[456] 1
x[457] 0
x[458] 1
x[459] 1
x[460] 0
x[461] 1
x[462] 0
x[463] 1
x[464] 1
x[465] 1
x[466] 0
x[467] 1
x[468] 0
x[469] 0
x[470] 0
x[471] 0
x[472] 1
x[473] 0
x[474] 1
x[475] 0
x[476] 0
x[477] 0
x[478] 0
x[479] 1
x[480] 1
x[481] 0
x[482] 0
x[483] 1
x[484] 0
x[485] 0
x[486] 0
x[487] 0
x[488] 0
x[489] 1
x[490] 1
x[491] 0
x[492] 0
x[493] 1
x[494] 1
x[495] 1
x[496] 0
x[497] 1
x[498] 1
x[499] 1
x[500] 0
x[501] 1
x[502] 1
x[503] 0
x[504] 0
x[505] 0
x[506] 1
x[507] 1
x[508] 0
x[509] 1
x[510] 0
x[511] 0
x[512] 0
x[513] 1
x[514] 1
x[515] 1
x[516] 0
x[517] 0
x[518] 1
x[519] 1
x[520] 1
x[521] 0
x[522] 1
x[523] 0
x[524] 1
x[525] 0
x[526] 1
x[527] 0
x[528] 1
x[529] 0
x[530] 1
x[531] 1
x[532] 1
x[533] 0
x[534] 0
x[535] 0
x[536] 0
x[537] 0
x[538] 0
x[539] 0
x[540] 1
x[541] 0
x[542] 1
x[543] 1
x[544] 0
x[545] 0
x[546] 1
x[547] 1
x[548] 1
x[549] 0
x[550] 0
x[551] 0
x[552] 1
x[553] 0
x[554] 0
x[555] 1
x[556] 0
x[557] 0
x[558] 0
x[559] 0
x[560] 1
x[561] 1
x[562] 1
x[563] 0
x[564] 1
x[565] 1
x[566] 0
x[567] 0
x[568] 0
x[569] 0
x[570] 0
x[571] 0
x[572] 0
x[573] 0
x[574] 0
x[575] 1
x[576] 0
x[577] 0
x[578] 1
x[579] 1
x[580] 1
x[581] 0
x[582] 0
x[583] 1
x[584] 0
x[585] 0
x[586] 0
x[587] 0
x[588] 1
x[589] 1
x[590] 0
x[591] 1
x[592] 1
x[593] 1
x[594] 0
x[595] 0
x[596] 0
x[597] 0
x[598] 0
x[599] 0
x[600] 1
x[601] 0
x[602] 0
x[603] 0
x[604] 1
x[605] 0
x[606] 0
x[607] 0
x[608] 0
x[609] 0
x[610] 0
x[611] 1
x[612] 0
x[613] 1
x[614] 0
x[615] 0
x[616] 1
x[617] 1
x[618] 1
x[619] 0
x[620] 1
x[621] 1
x[622] 0
x[623] 0
x[624] 1
x[625] 1
x[626] 0
x[627] 1
x[628] 0
x[629] 0
x[630] 0
x[631] 0
x[632] 1
x[633] 0
x[634] 1
x[635] 1
x[636] 0
x[637] 0
x[638] 1
x[639] 0
x[640] 0
x[641] 0
x[642] 1
x[643] 0
x[644] 0
x[645] 1
x[646] 0
x[647] 1
x[648] 0
x[649] 1
x[650] 1
x[651] 0
x[652] 0
x[653] 1
x[654] 0
x[655] 1
x[656] 0
x[657] 0
x[658] 0
x[659] 1
x[660] 0
x[661] 0
x[662] 0
x[663] 1
x[664] 1
x[665] 0
x[666] 0
x[667] 1
x[668] 0
x[669] 1
x[670] 0
x[671] 0
x[672] 1
x[673] 1
x[674] 0
x[675] 1
x[676] 1
x[677] 0
x[678] 1
x[679] 0
x[680] 0
x[681] 1
x[682] 1
x[683] 1
x[684] 1
x[685] 1
x[686] 0
x[687] 0
x[688] 0
x[689] 1
x[690] 0
x[691] 1
x[692] 1
x[693] 0
x[694] 1
x[695] 1
x[696] 1
x[697] 0
x[698] 0
x[699] 1
x[700] 0
x[701] 1
x[702] 1
x[703] 0
x[704] 0
x[705] 0
x[706] 0
x[707] 0
x[708] 0
x[709] 0
x[710] 1
x[711] 1
x[712] 0
x[713] 1
x[714] 1
x[715] 1
x[716] 1
x[717] 0
x[718] 1
x[719] 1
x[720] 0
x[721] 1
x[722] 1
x[723] 1
x[724] 1
x[725] 1
x[726] 0
x[727] 0
x[728] 1
x[729] 1
x[730] 0
x[731] 0
x[732] 1
x[733] 1
x[734] 1
x[735] 1
x[736] 0
x[737] 1
x[738] 0
x[739] 0
x[740] 0
x[741] 1
x[742] 0
x[743] 1
x[744] 1
x[745] 0
x[746] 0
x[747] 0
x[748] 0
x[749] 1
x[750] 1
x[751] 1
x[752] 1
x[753] 0
x[754] 0
x[755] 0
x[756] 0
x[757] 1
x[758] 0
x[759] 0
x[760] 0
x[761] 0
x[762] 0
x[763] 1
x[764] 1
x[765] 0
x[766] 1
x[767] 0
x[768] 1
x[769] 1
x[770] 1
x[771] 1
x[772] 0
x[773] 0
x[774] 0
x[775] 0
x[776] 0
x[777] 1
x[778] 0
x[779] 0
x[780] 0
x[781] 1
x[782] 1
x[783] 0
x[784] 1
x[785] 0
x[786] 0
x[787] 1
x[788] 1
x[789] 0
x[790] 0
x[791] 1
x[792] 1
x[793] 0
x[794] 0
x[795] 0
x[796] 0
x[797] 0
x[798] 1
x[799] 0
x[800] 0
x[801] 1
x[802] 0
x[803] 1
x[804] 1
x[805] 1
x[806] 1
x[807] 0
x[808] 0
x[809] 1
x[810] 0
x[811] 0
x[812] 1
x[813] 0
x[814] 0
x[815] 1
x[816] 1
x[817] 0
x[818] 0
x[819] 0
x[820] 0
x[821] 0
x[822] 1
x[823] 0
x[824] 0
x[825] 1
x[826] 1
x[827] 1
x[828] 0
x[829] 1
x[830] 1
x[831] 0
x[832] 1
x[833] 0
x[834] 0
x[835] 1
x[836] 0
x[837] 1
x[838] 1
x[839] 0
x[840] 1
x[841] 1
x[842] 0
x[843] 1
x[844] 0
x[845] 0
x[846] 1
x[847] 0
x[848] 0
x[849] 1
x[850] 0
x[851] 1
x[852] 1
x[853] 1
x[854] 0
x[855] 1
x[856] 0
x[857] 0
x[858] 0
x[859] 1
x[860] 0
x[861] 1
x[862] 0
x[863] 1
x[864] 0
x[865] 0
x[866] 0
x[867] 1
x[868] 1
x[869] 0
x[870] 0
x[871] 1
x[872] 0
x[873] 0
x[874] 1
x[875] 1
x[876] 0
x[877] 1
x[878] 1
x[879] 0
x[880] 1
x[881] 0
x[882] 0
x[883] 0
x[884] 0
x[885] 1
x[886] 1
x[887] 0
x[888] 1
x[889] 1
x[890] 0
x[891] 0
x[892] 0
x[893] 0
x[894] 1
x[895] 1
x[896] 0
x[897] 1
x[898] 1
x[899] 1
x[900] 0
x[901] 1
x[902] 0
x[903] 0
x[904] 1
x[905] 0
x[906] 0
x[907] 1
x[908] 0
x[909] 1
x[910] 0
x[911] 1
x[912] 0
x[913] 1
x[914] 0
x[915] 1
x[916] 0
x[917] 1
x[918] 1
x[919] 0
x[920] 1
x[921] 0
x[922] 0
x[923] 0
x[924] 1
x[925] 1
x[926] 1
x[927] 0
x[928] 1
x[929] 1
x[930] 0
x[931] 1
x[932] 1
x[933] 0
x[934] 0
x[935] 1
x[936] 1
x[937] 0
x[938] 1
x[939] 0
x[940] 1
x[941] 1
x[942] 1
x[943] 1
x[944] 0
x[945] 1
x[946] 1
x[947] 1
x[948] 1
x[949] 0
x[950] 1
x[951] 1
x[952] 1
x[953] 1
x[954] 1
x[955] 0
x[956] 1
x[957] 1
x[958] 1
x[959] 1
x[960] 0
x[961] 1
x[962] 0
x[963] 0
x[964] 0
x[965] 1
x[966] 0
x[967] 0
x[968] 1
x[969] 1
x[970] 1
x[971] 0
x[972] 0
x[973] 0
x[974] 1
x[975] 0
x[976] 1
x[977] 0
x[978] 0
x[979] 0
x[980] 1
x[981] 1
x[982] 0
x[983] 1
x[984] 1
x[985] 1
x[986] 1
x[987] 1
x[988] 1
x[989] 0
x[990] 0
x[991] 1
x[992] 1
x[993] 0
x[994] 0
x[995] 1
x[996] 1
x[997] 0
x[998] 0
x[999] 1
